instances/knapsack/knapsack_general/knapsack_20_1_2.mps
* Signature: 0x21fa7211c45a3dc6
NAME knapsack_20_1_2
ROWS
 N  OBJ
 L  primal_upper
 L  primal_lower0
 L  mccormick1[0]
 L  mccormick1[1]
 L  mccormick1[2]
 L  mccormick1[3]
 L  mccormick1[4]
 L  mccormick1[5]
 L  mccormick1[6]
 L  mccormick1[7]
 L  mccormick1[8]
 L  mccormick1[9]
 L  mccormick1[10]
 L  mccormick1[11]
 L  mccormick1[12]
 L  mccormick1[13]
 L  mccormick1[14]
 L  mccormick1[15]
 L  mccormick1[16]
 L  mccormick1[17]
 L  mccormick1[18]
 L  mccormick1[19]
 L  mccormick2[0]
 L  mccormick2[1]
 L  mccormick2[2]
 L  mccormick2[3]
 L  mccormick2[4]
 L  mccormick2[5]
 L  mccormick2[6]
 L  mccormick2[7]
 L  mccormick2[8]
 L  mccormick2[9]
 L  mccormick2[10]
 L  mccormick2[11]
 L  mccormick2[12]
 L  mccormick2[13]
 L  mccormick2[14]
 L  mccormick2[15]
 L  mccormick2[16]
 L  mccormick2[17]
 L  mccormick2[18]
 L  mccormick2[19]
 L  mccormick3[0]
 L  mccormick3[1]
 L  mccormick3[2]
 L  mccormick3[3]
 L  mccormick3[4]
 L  mccormick3[5]
 L  mccormick3[6]
 L  mccormick3[7]
 L  mccormick3[8]
 L  mccormick3[9]
 L  mccormick3[10]
 L  mccormick3[11]
 L  mccormick3[12]
 L  mccormick3[13]
 L  mccormick3[14]
 L  mccormick3[15]
 L  mccormick3[16]
 L  mccormick3[17]
 L  mccormick3[18]
 L  mccormick3[19]
COLUMNS
    MARKER    'MARKER'                 'INTORG'
    y[0]      OBJ       -185
    y[0]      primal_upper  85
    y[0]      primal_lower0  -18
    y[0]      mccormick2[0]  -1
    y[0]      mccormick3[0]  1
    y[1]      OBJ       -563
    y[1]      primal_upper  463
    y[1]      primal_lower0  -28
    y[1]      mccormick2[1]  -1
    y[1]      mccormick3[1]  1
    y[2]      OBJ       -565
    y[2]      primal_upper  465
    y[2]      primal_lower0  -29
    y[2]      mccormick2[2]  -1
    y[2]      mccormick3[2]  1
    y[3]      OBJ       -348
    y[3]      primal_upper  248
    y[3]      primal_lower0  -22
    y[3]      mccormick2[3]  -1
    y[3]      mccormick3[3]  1
    y[4]      OBJ       -1019
    y[4]      primal_upper  919
    y[4]      primal_lower0  -22
    y[4]      mccormick2[4]  -1
    y[4]      mccormick3[4]  1
    y[5]      OBJ       -405
    y[5]      primal_upper  305
    y[5]      primal_lower0  -15
    y[5]      mccormick2[5]  -1
    y[5]      mccormick3[5]  1
    y[6]      OBJ       -132
    y[6]      primal_upper  32
    y[6]      primal_lower0  -15
    y[6]      mccormick2[6]  -1
    y[6]      mccormick3[6]  1
    y[7]      OBJ       -657
    y[7]      primal_upper  557
    y[7]      primal_lower0  -14
    y[7]      mccormick2[7]  -1
    y[7]      mccormick3[7]  1
    y[8]      OBJ       -669
    y[8]      primal_upper  569
    y[8]      primal_lower0  -26
    y[8]      mccormick2[8]  -1
    y[8]      mccormick3[8]  1
    y[9]      OBJ       -551
    y[9]      primal_upper  451
    y[9]      primal_lower0  -19
    y[9]      mccormick2[9]  -1
    y[9]      mccormick3[9]  1
    y[10]     OBJ       -995
    y[10]     primal_upper  895
    y[10]     primal_lower0  -35
    y[10]     mccormick2[10]  -1
    y[10]     mccormick3[10]  1
    y[11]     OBJ       -734
    y[11]     primal_upper  634
    y[11]     primal_lower0  -27
    y[11]     mccormick2[11]  -1
    y[11]     mccormick3[11]  1
    y[12]     OBJ       -526
    y[12]     primal_upper  426
    y[12]     primal_lower0  -28
    y[12]     mccormick2[12]  -1
    y[12]     mccormick3[12]  1
    y[13]     OBJ       -791
    y[13]     primal_upper  691
    y[13]     primal_lower0  -8
    y[13]     mccormick2[13]  -1
    y[13]     mccormick3[13]  1
    y[14]     OBJ       -165
    y[14]     primal_upper  65
    y[14]     primal_lower0  -1
    y[14]     mccormick2[14]  -1
    y[14]     mccormick3[14]  1
    y[15]     OBJ       -433
    y[15]     primal_upper  333
    y[15]     primal_lower0  -10
    y[15]     mccormick2[15]  -1
    y[15]     mccormick3[15]  1
    y[16]     OBJ       -606
    y[16]     primal_upper  506
    y[16]     primal_lower0  -1
    y[16]     mccormick2[16]  -1
    y[16]     mccormick3[16]  1
    y[17]     OBJ       -828
    y[17]     primal_upper  728
    y[17]     primal_lower0  -31
    y[17]     mccormick2[17]  -1
    y[17]     mccormick3[17]  1
    y[18]     OBJ       -667
    y[18]     primal_upper  567
    y[18]     primal_lower0  -11
    y[18]     mccormick2[18]  -1
    y[18]     mccormick3[18]  1
    y[19]     OBJ       -632
    y[19]     primal_upper  532
    y[19]     primal_lower0  -19
    y[19]     mccormick2[19]  -1
    y[19]     mccormick3[19]  1
    u[0]      primal_lower0  664
    u[0]      mccormick1[0]  -1
    u[0]      mccormick3[0]  1
    u[1]      primal_lower0  686
    u[1]      mccormick1[1]  -1
    u[1]      mccormick3[1]  1
    u[2]      primal_lower0  244
    u[2]      mccormick1[2]  -1
    u[2]      mccormick3[2]  1
    u[3]      primal_lower0  55
    u[3]      mccormick1[3]  -1
    u[3]      mccormick3[3]  1
    u[4]      primal_lower0  986
    u[4]      mccormick1[4]  -1
    u[4]      mccormick3[4]  1
    u[5]      primal_lower0  496
    u[5]      mccormick1[5]  -1
    u[5]      mccormick3[5]  1
    u[6]      primal_lower0  315
    u[6]      mccormick1[6]  -1
    u[6]      mccormick3[6]  1
    u[7]      primal_lower0  860
    u[7]      mccormick1[7]  -1
    u[7]      mccormick3[7]  1
    u[8]      primal_lower0  308
    u[8]      mccormick1[8]  -1
    u[8]      mccormick3[8]  1
    u[9]      primal_lower0  722
    u[9]      mccormick1[9]  -1
    u[9]      mccormick3[9]  1
    u[10]     primal_lower0  482
    u[10]     mccormick1[10]  -1
    u[10]     mccormick3[10]  1
    u[11]     primal_lower0  521
    u[11]     mccormick1[11]  -1
    u[11]     mccormick3[11]  1
    u[12]     primal_lower0  157
    u[12]     mccormick1[12]  -1
    u[12]     mccormick3[12]  1
    u[13]     primal_lower0  858
    u[13]     mccormick1[13]  -1
    u[13]     mccormick3[13]  1
    u[14]     primal_lower0  604
    u[14]     mccormick1[14]  -1
    u[14]     mccormick3[14]  1
    u[15]     primal_lower0  964
    u[15]     mccormick1[15]  -1
    u[15]     mccormick3[15]  1
    u[16]     primal_lower0  277
    u[16]     mccormick1[16]  -1
    u[16]     mccormick3[16]  1
    u[17]     primal_lower0  87
    u[17]     mccormick1[17]  -1
    u[17]     mccormick3[17]  1
    u[18]     primal_lower0  994
    u[18]     mccormick1[18]  -1
    u[18]     mccormick3[18]  1
    u[19]     primal_lower0  339
    u[19]     mccormick1[19]  -1
    u[19]     mccormick3[19]  1
    z[0]      primal_upper  8
    z[0]      mccormick1[0]  1
    z[0]      mccormick2[0]  1
    z[0]      mccormick3[0]  -1
    z[1]      primal_upper  46
    z[1]      mccormick1[1]  1
    z[1]      mccormick2[1]  1
    z[1]      mccormick3[1]  -1
    z[2]      primal_upper  46
    z[2]      mccormick1[2]  1
    z[2]      mccormick2[2]  1
    z[2]      mccormick3[2]  -1
    z[3]      primal_upper  25
    z[3]      mccormick1[3]  1
    z[3]      mccormick2[3]  1
    z[3]      mccormick3[3]  -1
    z[4]      primal_upper  92
    z[4]      mccormick1[4]  1
    z[4]      mccormick2[4]  1
    z[4]      mccormick3[4]  -1
    z[5]      primal_upper  30
    z[5]      mccormick1[5]  1
    z[5]      mccormick2[5]  1
    z[5]      mccormick3[5]  -1
    z[6]      primal_upper  3
    z[6]      mccormick1[6]  1
    z[6]      mccormick2[6]  1
    z[6]      mccormick3[6]  -1
    z[7]      primal_upper  56
    z[7]      mccormick1[7]  1
    z[7]      mccormick2[7]  1
    z[7]      mccormick3[7]  -1
    z[8]      primal_upper  57
    z[8]      mccormick1[8]  1
    z[8]      mccormick2[8]  1
    z[8]      mccormick3[8]  -1
    z[9]      primal_upper  45
    z[9]      mccormick1[9]  1
    z[9]      mccormick2[9]  1
    z[9]      mccormick3[9]  -1
    z[10]     primal_upper  90
    z[10]     mccormick1[10]  1
    z[10]     mccormick2[10]  1
    z[10]     mccormick3[10]  -1
    z[11]     primal_upper  63
    z[11]     mccormick1[11]  1
    z[11]     mccormick2[11]  1
    z[11]     mccormick3[11]  -1
    z[12]     primal_upper  43
    z[12]     mccormick1[12]  1
    z[12]     mccormick2[12]  1
    z[12]     mccormick3[12]  -1
    z[13]     primal_upper  69
    z[13]     mccormick1[13]  1
    z[13]     mccormick2[13]  1
    z[13]     mccormick3[13]  -1
    z[14]     primal_upper  6
    z[14]     mccormick1[14]  1
    z[14]     mccormick2[14]  1
    z[14]     mccormick3[14]  -1
    z[15]     primal_upper  33
    z[15]     mccormick1[15]  1
    z[15]     mccormick2[15]  1
    z[15]     mccormick3[15]  -1
    z[16]     primal_upper  51
    z[16]     mccormick1[16]  1
    z[16]     mccormick2[16]  1
    z[16]     mccormick3[16]  -1
    z[17]     primal_upper  73
    z[17]     mccormick1[17]  1
    z[17]     mccormick2[17]  1
    z[17]     mccormick3[17]  -1
    z[18]     primal_upper  57
    z[18]     mccormick1[18]  1
    z[18]     mccormick2[18]  1
    z[18]     mccormick3[18]  -1
    z[19]     primal_upper  53
    z[19]     mccormick1[19]  1
    z[19]     mccormick2[19]  1
    z[19]     mccormick3[19]  -1
    MARKER    'MARKER'                 'INTEND'
RHS
    RHS1      primal_upper  3157
    RHS1      primal_lower0  994
    RHS1      mccormick3[0]  1
    RHS1      mccormick3[1]  1
    RHS1      mccormick3[2]  1
    RHS1      mccormick3[3]  1
    RHS1      mccormick3[4]  1
    RHS1      mccormick3[5]  1
    RHS1      mccormick3[6]  1
    RHS1      mccormick3[7]  1
    RHS1      mccormick3[8]  1
    RHS1      mccormick3[9]  1
    RHS1      mccormick3[10]  1
    RHS1      mccormick3[11]  1
    RHS1      mccormick3[12]  1
    RHS1      mccormick3[13]  1
    RHS1      mccormick3[14]  1
    RHS1      mccormick3[15]  1
    RHS1      mccormick3[16]  1
    RHS1      mccormick3[17]  1
    RHS1      mccormick3[18]  1
    RHS1      mccormick3[19]  1
BOUNDS
 BV BND1      y[0]    
 BV BND1      y[1]    
 BV BND1      y[2]    
 BV BND1      y[3]    
 BV BND1      y[4]    
 BV BND1      y[5]    
 BV BND1      y[6]    
 BV BND1      y[7]    
 BV BND1      y[8]    
 BV BND1      y[9]    
 BV BND1      y[10]   
 BV BND1      y[11]   
 BV BND1      y[12]   
 BV BND1      y[13]   
 BV BND1      y[14]   
 BV BND1      y[15]   
 BV BND1      y[16]   
 BV BND1      y[17]   
 BV BND1      y[18]   
 BV BND1      y[19]   
 BV BND1      u[0]    
 BV BND1      u[1]    
 BV BND1      u[2]    
 BV BND1      u[3]    
 BV BND1      u[4]    
 BV BND1      u[5]    
 BV BND1      u[6]    
 BV BND1      u[7]    
 BV BND1      u[8]    
 BV BND1      u[9]    
 BV BND1      u[10]   
 BV BND1      u[11]   
 BV BND1      u[12]   
 BV BND1      u[13]   
 BV BND1      u[14]   
 BV BND1      u[15]   
 BV BND1      u[16]   
 BV BND1      u[17]   
 BV BND1      u[18]   
 BV BND1      u[19]   
 BV BND1      z[0]    
 BV BND1      z[1]    
 BV BND1      z[2]    
 BV BND1      z[3]    
 BV BND1      z[4]    
 BV BND1      z[5]    
 BV BND1      z[6]    
 BV BND1      z[7]    
 BV BND1      z[8]    
 BV BND1      z[9]    
 BV BND1      z[10]   
 BV BND1      z[11]   
 BV BND1      z[12]   
 BV BND1      z[13]   
 BV BND1      z[14]   
 BV BND1      z[15]   
 BV BND1      z[16]   
 BV BND1      z[17]   
 BV BND1      z[18]   
 BV BND1      z[19]   
ENDATA
